NAME: GRASP_16_3
TYPE: TSP
COMMENT: line_16_3
DIMENSION: 16
EDGE_WEIGHT_TYPE: EUC_2D
NODE_COORD_SECTION
1 0.0 97.0
2 0.0 95.0
3 0.0 51.0
4 0.0 152.0
5 0.0 134.0
6 0.0 31.0
7 0.0 31.0
8 0.0 10.0
9 0.0 100.0
10 0.0 116.0
11 0.0 22.0
12 0.0 77.0
13 0.0 4.0
14 0.0 150.0
15 0.0 107.0
16 0.0 84.0
